120 150
1 83
2 37
3 98 8 9 11 12 14 16 19 20 23 27 29 32 35 36 37 40 41 48 49 51 52 54 55 57 65 66 68 69 70 73 76 78 79 80 83 84 88 89 93 96 98 105 108 110 113 114 115 117 118
4 85
5 88
6 95
7 29
8 35 11 12 16 19 23 27 29 36 37 40 41 48 51 52 57 65 66 68 70 73 78 79 80 83 89 96 98 105 108 113 114
9 100 12 19 68 73 80 96 98 105
10 55
11 48 12 19 23 29 37 40 41 48 52 57 68 70 73 78 80 89 96 98 105 108
12 27 16 19 20 23 27 29 35 36 37 40 41 48 49 51 52 55 57 65 66 68 70 73 76 78 79 80 83 84 89 93 96 98 105 108 110 113 114 115 118
13 20
14 66 68 73 80 98 105
15 62
16 52 19 23 29 37 40 41 48 52 57 65 68 70 73 78 80 83 89 96 98 105 108 114
17 88
18 59
19 97 20 23 27 29 35 36 37 40 41 48 49 51 52 55 57 65 66 68 70 73 76 78 79 80 83 84 89 93 96 98 105 108 110 113 114 115 118
20 91 23 29 40 68 73 80 96 98 105 108
21 81
22 81
23 86 27 29 35 36 37 40 41 48 49 51 52 57 65 66 68 70 73 76 78 79 80 83 89 96 98 105 108 113 114 115 118
24 48
25 43
26 60
27 72 29 37 40 41 48 52 57 68 70 73 78 80 89 96 98 105 108 114
28 88
29 90 35 36 37 40 41 48 49 51 52 57 65 66 68 70 73 76 78 79 80 83 89 96 98 105 108 113 114 115 118
30 48
31 38
32 60 68 73 80 98 105
33 53
34 55
35 90 37 40 41 68 73 78 80 89 96 98 105 108
36 48 37 40 41 48 52 57 68 70 73 78 80 89 96 98 105 108 114
37 55 40 41 48 49 51 52 57 65 66 68 70 73 76 78 79 80 83 89 96 98 105 108 113 114 115 118
38 57
39 59
40 25 41 48 49 51 52 57 65 66 68 70 73 76 78 79 80 83 89 96 98 105 108 113 114 115 118
41 51 48 49 51 52 57 65 66 68 70 73 76 78 79 80 83 89 96 98 105 108 113 114 115
42 22
43 43
44 31
45 52
46 89
47 96
48 58 51 52 57 65 66 68 70 73 78 79 80 83 89 96 98 105 108 113 114
49 63 57 68 73 78 80 89 96 98 105 108
50 27
51 46 52 57 68 70 73 78 80 89 96 98 105 108 114
52 43 57 65 66 68 70 73 78 80 83 89 96 98 105 108 113 114
53 30
54 44 68 98
55 71 68 73 80 96 98 105
56 66
57 64 65 66 68 70 73 78 79 80 83 89 96 98 105 108 113 114
58 28
59 83
60 88
61 42
62 92
63 95
64 36
65 24 68 70 73 78 80 89 96 98 105 108 114
66 62 68 70 73 78 80 89 96 98 105 108 114
67 44
68 82 69 70 73 76 78 79 80 83 84 88 89 93 96 98 105 108 110 113 114 115 117 118
69 59 73 80 98 105
70 31 73 78 79 80 83 89 96 98 105 108 113 114
71 96
72 44
73 61 76 78 79 80 83 84 88 89 93 96 98 105 108 110 113 114 115 117 118
74 78
75 72
76 62 78 80 89 96 98 105 108
77 76
78 65 79 80 83 89 96 98 105 108 113 114 115
79 22 80 89 96 98 105 108
80 41 83 84 88 89 93 96 98 105 108 110 113 114 115 117 118
81 27
82 85
83 80 89 96 98 105 108 114
84 72 96 98 105
85 100
86 29
87 27
88 43 98 105
89 83 96 98 105 108 113 114 115 118
90 32
91 33
92 53
93 95 96 98 105
94 99
95 20
96 23 98 105 108 110 113 114 115 118
97 72
98 50 105 108 110 113 114 115 117 118
99 50
100 27
101 89
102 53
103 75
104 81
105 34 108 110 113 114 115 117 118
106 27
107 69
108 48 113 114 115 118
109 84
110 37
111 69
112 54
113 51
114 49
115 49
116 54
117 100
118 55
119 45
120 83
